(set-logic QF_S)
(declare-fun var0 () String)
(declare-fun var1 () Int)
(declare-fun var2 () Bool)
(declare-fun var3 () String)
(declare-fun var4 () Int)
(declare-fun var5 () Bool)
(declare-fun var6 () String)
(declare-fun var7 () Int)
(declare-fun var8 () Bool)
(assert (str.contains (str.replace var6 var3 var0) (str.substr var6 var1 var4)))
(assert (str.contains (str.at var3 var4) (str.at (str.substr var0 var1 var7) (str.len var0))))
(assert (str.in.re (str.substr var0 var7 var7) (re.* re.allchar)))
(assert (not (str.in.re var0 re.allchar)))
(check-sat)